1       35.00      35.00       0.00
2       41.00      49.00      10.00
3       35.00      17.00       7.00
4       55.00      45.00      13.00
5       55.00      20.00      19.00
6       15.00      30.00      26.00
7       25.00      30.00       3.00
8       20.00      50.00       5.00
9       10.00      43.00       9.00
10      55.00      60.00      16.00
11      30.00      60.00      16.00
12      20.00      65.00      12.00
13      50.00      35.00      19.00
14      30.00      25.00      23.00
15      15.00      10.00      20.00
16      30.00       5.00       8.00
17      10.00      20.00      19.00
18       5.00      30.00       2.00
19      20.00      40.00      12.00
20      15.00      60.00      17.00
21      45.00      65.00       9.00
22      45.00      20.00      11.00
23      45.00      10.00      18.00
24      55.00       5.00      29.00
25      65.00      35.00       3.00
26      65.00      20.00       6.00